solution status: optimal solution found
objective value:                     149162.209259835
d11(0,0)                                            1 	(obj:0)
d11(1,1)                                            1 	(obj:0)
d11(1,2)                                            1 	(obj:0)
d11(1,3)                                            1 	(obj:0)
d11(2,4)                                            1 	(obj:0)
d11(2,7)                                            1 	(obj:0)
d11(2,8)                                            1 	(obj:0)
d11(2,10)                                           1 	(obj:0)
d11(2,11)                                           1 	(obj:0)
d11(3,13)                                           1 	(obj:0)
d11(3,14)                                           1 	(obj:0)
d11(3,15)                                           1 	(obj:0)
d11(3,16)                                           1 	(obj:0)
d11(3,17)                                           1 	(obj:0)
d11(3,18)                                           1 	(obj:0)
d11(3,19)                                           1 	(obj:0)
d11(3,20)                                           1 	(obj:0)
d11(3,21)                                           1 	(obj:0)
d11(3,22)                                           1 	(obj:0)
d11(3,23)                                           1 	(obj:0)
d11(3,24)                                           1 	(obj:0)
d11(3,25)                                           1 	(obj:0)
d11(3,26)                                           1 	(obj:0)
d11(3,28)                                           1 	(obj:0)
d11(3,29)                                           1 	(obj:0)
d11(3,30)                                           1 	(obj:0)
d11(3,31)                                           1 	(obj:0)
d11(3,32)                                           1 	(obj:0)
d11(3,33)                                           1 	(obj:0)
d11(3,34)                                           1 	(obj:0)
d11(3,35)                                           1 	(obj:0)
d11(3,36)                                           1 	(obj:0)
d11(3,37)                                           1 	(obj:0)
d11(3,38)                                           1 	(obj:0)
d11(3,39)                                           1 	(obj:0)
d12(2,6)                                            1 	(obj:0)
d12(2,9)                                            1 	(obj:0)
d12(2,12)                                           1 	(obj:0)
d21(3,13)                           0.999999999999999 	(obj:0)
d21(3,14)                                           1 	(obj:0)
d21(3,15)                                           1 	(obj:0)
d21(3,16)                                           1 	(obj:0)
d21(3,17)                                           1 	(obj:0)
d21(3,19)                                           1 	(obj:0)
d21(3,22)                                           1 	(obj:0)
d21(3,23)                                           1 	(obj:0)
d21(3,25)                                           1 	(obj:0)
d21(3,28)                                           1 	(obj:0)
d21(3,31)                                           1 	(obj:0)
STE(1,1)                             3706.88896948341 	(obj:0)
STE(0,0)                                         9450 	(obj:0)
STE(1,2)                              4703.6549728167 	(obj:0)
STE(1,3)                             5921.10717615008 	(obj:0)
STE(2,4)                             1954.12296615006 	(obj:0)
STE(2,5)                             2950.88896948341 	(obj:0)
STE(2,6)                              3863.4523033334 	(obj:0)
STE(2,7)                             2950.88896948335 	(obj:0)
STE(2,8)                             3947.65497281658 	(obj:0)
STE(2,9)                             4860.21830666669 	(obj:0)
STE(2,10)                            4168.34117281673 	(obj:0)
STE(2,11)                            5165.10717614996 	(obj:0)
STE(2,12)                            6077.67051000007 	(obj:0)
STE(3,13)                           -1016.09524051663 	(obj:0)
STE(3,14)                            -19.329237183337 	(obj:0)
STE(3,15)                            1198.12296615004 	(obj:0)
STE(3,16)                           -19.3292371832779 	(obj:0)
STE(3,17)                            977.436766150013 	(obj:0)
STE(3,18)                            2194.88896948339 	(obj:0)
STE(3,19)                            893.234096666709 	(obj:0)
STE(3,20)                                   1890.0001 	(obj:0)
STE(3,21)                            3107.45230333338 	(obj:0)
STE(3,22)                           -19.3292371833361 	(obj:0)
STE(3,23)                            977.436766149955 	(obj:0)
STE(3,24)                            2194.88896948335 	(obj:0)
STE(3,25)                            977.436766149891 	(obj:0)
STE(3,26)                            1974.20276948318 	(obj:0)
STE(3,27)                            3191.65497281658 	(obj:0)
STE(3,28)                                   1890.0001 	(obj:0)
STE(3,29)                            2886.76610333329 	(obj:0)
STE(3,30)                            4104.21830666667 	(obj:0)
STE(3,31)                            1198.12296615004 	(obj:0)
STE(3,32)                            2194.88896948333 	(obj:0)
STE(3,33)                            3412.34117281671 	(obj:0)
STE(3,34)                            2194.88896948327 	(obj:0)
STE(3,35)                            3191.65497281656 	(obj:0)
STE(3,36)                            4409.10717614994 	(obj:0)
STE(3,37)                            3107.45230333338 	(obj:0)
STE(3,38)                            4104.21830666667 	(obj:0)
STE(3,39)                            5321.67051000005 	(obj:0)
y1(3,23)                             1095.70698300006 	(obj:0)
y1(3,25)                             1992.79638600002 	(obj:0)
y1(3,26)                             1095.70698300006 	(obj:0)
y1(3,28)                             1992.79638600002 	(obj:0)
y1(3,29)                             1095.70698300006 	(obj:0)
y1(3,31)                             1992.79638600002 	(obj:0)
y1(3,32)                             1095.70698300006 	(obj:0)
y1(3,34)                             1992.79638600002 	(obj:0)
y1(3,35)                             1095.70698300006 	(obj:0)
y1(3,37)                             1992.79638600002 	(obj:0)
y1(3,38)                             1095.70698300006 	(obj:0)
BG(3)                                1204.56299667524 	(obj:10)
AVE(1)                               3199.95851117552 	(obj:0)
AVE(2)                               3265.15049132519 	(obj:0)
AVE(3)                               3291.35535332476 	(obj:0)
WG(1)                                3199.95851117552 	(obj:10)
WG(2)                                3265.15049132519 	(obj:10)
WG(3)                                3291.35535332476 	(obj:10)
BG(1)                                3842.49406480911 	(obj:10)
BG(2)                                 112.69950867481 	(obj:10)
y1(1,1)                              4488.39992746493 	(obj:0)
y1(1,2)                              3591.31052446497 	(obj:0)
y1(1,3)                              2495.60354146493 	(obj:0)
y1(2,4)                              897.089403000015 	(obj:0)
y1(2,7)                              897.089403000015 	(obj:0)
y1(2,10)                             897.089403000015 	(obj:0)
y1(3,13)                             1992.79638600002 	(obj:0)
y1(3,14)                             1095.70698300006 	(obj:0)
y1(3,16)                             1992.79638600002 	(obj:0)
y1(3,17)                             1095.70698300006 	(obj:0)
y1(3,19)                             1992.79638600002 	(obj:0)
y1(3,20)                             1095.70698300006 	(obj:0)
y1(3,22)                             1992.79638600002 	(obj:0)
y2(2,6)                              960.592982999986 	(obj:0)
y2(2,9)                              960.592982999986 	(obj:0)
y2(2,12)                             960.592982999986 	(obj:0)
